32      9       
13      18      12      17      15      18      12      16      19      
0       0       0       0       0       0       0       0       0       0       1       2       
9       0       0       0       0       0       0       0       7       9       1       3       
4       0       0       0       0       0       0       1       0       0       2       4       8       
5       0       0       0       0       3       8       0       0       0       1       5       
6       0       0       0       1       0       0       5       0       0       2       6       7       
4       0       0       0       5       0       9       0       0       0       2       9       12      
5       0       0       0       17      0       0       0       0       19      1       10      
10      0       0       0       0       0       0       7       0       0       1       9       
4       0       0       0       0       1       0       0       0       0       2       11      13      
3       9       0       9       0       0       0       0       0       0       2       11      13      
4       0       14      0       0       0       15      0       0       0       3       14      15      17      
7       13      18      0       0       0       0       0       0       0       3       14      15      17      
5       4       0       0       6       0       0       0       0       0       1       14      
2       0       0       1       0       0       0       0       0       0       3       16      18      24      
5       0       5       0       0       0       0       12      0       0       2       16      24      
3       0       2       6       0       0       0       0       0       0       3       19      20      22      
10      0       0       0       15      0       7       0       0       0       3       19      20      23      
5       0       0       0       0       9       0       0       0       7       3       20      22      23      
10      5       0       0       0       0       0       0       11      0       1       21      
5       0       7       0       0       12      0       0       0       0       1       25      
8       0       0       2       0       0       0       7       0       0       1       25      
5       0       0       0       0       0       10      0       0       16      1       25      
5       6       0       0       7       0       0       0       0       0       1       25      
3       0       8       0       0       0       0       0       8       0       1       25      
1       0       0       0       0       0       5       0       0       1       2       26      27      
1       2       0       0       0       0       0       0       10      0       2       28      29      
4       0       0       0       0       0       0       0       5       0       1       28      
2       0       0       12      0       0       0       0       0       5       2       30      31      
9       0       0       6       0       5       0       0       0       0       1       30      
6       0       0       0       0       0       0       4       0       0       1       32      
8       0       0       0       0       15      0       0       7       0       1       32      
0       0       0       0       0       0       0       0       0       0       0       
